000 000 000 000 000 000 000 000 -99 -99 -99 -99 -99 000 000 -99 -99 -99 -99 000 -99 -99 -99 -99 000 000 -99 000 -99 -99 000
000 000 000 001 000 000 000 000 000 -99 -99 -99 -99 000 000 000 -99 -99 -99 000 000 000 000 -99 000 -99 -99 000 -99 -99 000
000 000 000 001 000 000 000 000 000 000 -99 -99 -99 000 000 000 -99 -99 -99 000 000 000 000 000 000 000 -99 000 -99 -99 -99
000 000 000 000 000 000 000 000 000 000 -99 -99 -99 000 000 000 -99 -99 -99 000 000 000 000 000 000 000 -99 -99 -99 -99 -99
000 000 000 000 000 000 000 000 000 000 -99 -99 000 000 000 000 000 -99 -99 -99 000 000 000 000 000 000 -99 -99 -99 -99 -99
000 000 000 000 000 000 000 000 000 000 -99 000 000 000 000 000 000 000 -99 -99 000 000 000 000 000 000 -99 -99 -99 -99 -99
000 000 000 000 000 000 000 000 000 000 000 000 -99 000 000 000 000 000 -99 -99 000 000 000 000 000 000 -99 -99 -99 -99 -99
000 000 000 000 000 000 000 000 000 000 000 000 -99 000 000 000 000 000 000 -99 000 000 000 000 000 -99 -99 -99 -99 000 000
000 000 000 000 000 000 000 000 000 000 000 000 000 -99 -99 000 000 000 000 -99 000 -99 000 -99 000 -99 -99 -99 000 000 000
000 000 000 000 000 000 000 000 000 000 000 000 000 -99 000 000 000 000 000 -99 000 000 -99 -99 -99 -99 -99 000 -99 000 000
000 000 000 000 000 000 000 000 000 000 000 000 000 -99 -99 000 000 000 000 -99 000 000 -99 -99 -99 -99 -99 000 000 000 000
000 000 000 000 000 000 000 000 000 000 000 000 000 -99 -99 000 000 000 000 000 -99 000 -99 000 000 -99 -99 000 000 000 000
000 000 000 000 000 000 000 000 000 000 000 000 000 -99 -99 000 000 000 000 000 000 -99 -99 000 000 -99 -99 -99 000 -99 -99
000 000 000 000 000 000 000 000 000 000 000 000 000 -99 -99 000 000 -99 000 000 -99 -99 -99 000 000 000 -99 000 000 -99 -99
000 000 000 000 000 000 000 -99 000 000 -99 000 000 000 -99 000 000 -99 000 -99 -99 -99 -99 000 000 000 000 000 000 -99 -99
000 000 000 000 000 000 000 000 000 000 -99 000 000 000 -99 000 000 000 000 -99 -99 000 -99 000 000 000 000 000 000 000 -99
000 -99 000 000 000 000 000 000 000 000 -99 -99 000 000 000 -99 000 000 000 -99 -99 -99 000 -99 000 000 000 000 000 000 -99
000 000 000 -99 -99 000 000 000 000 000 -99 -99 -99 000 000 -99 000 000 -99 -99 -99 000 000 -99 -99 000 000 -99 -99 000 000
000 000 000 000 -99 -99 000 000 000 000 -99 000 000 000 000 000 000 000 -99 -99 -99 000 000 -99 -99 -99 000 000 -99 000 000
000 000 000 000 000 001 001 000 001 000 000 000 000 000 000 -99 000 000 000 -99 000 000 000 -99 -99 -99 -99 -99 -99 -99 -99
000 000 000 000 000 001 001 000 000 000 000 000 000 000 -99 000 000 000 000 000 000 000 000 -99 -99 -99 -99 -99 -99 -99 -99
000 000 000 000 001 002 001 000 000 000 000 000 000 000 000 000 000 000 000 000 000 000 000 -99 -99 -99 -99 -99 -99 -99 -99
000 000 000 001 003 001 000 000 000 000 000 000 000 000 000 000 000 000 000 000 000 000 001 005 -99 -99 -99 -99 -99 -99 -99
000 000 000 001 004 001 001 000 000 000 000 000 000 000 000 000 000 000 001 002 002 002 004 005 -99 -99 -99 -99 -99 -99 -99
000 000 000 002 004 001 002 003 000 000 000 000 000 000 000 000 000 000 005 009 006 006 011 009 010 -99 -99 -99 -99 -99 -99
000 000 000 003 002 001 002 002 001 001 000 000 000 000 000 000 000 000 005 010 008 006 016 015 010 -99 -99 -99 -99 000 000
000 000 000 001 001 001 002 002 002 001 001 001 000 000 000 000 000 000 002 005 006 008 020 015 009 -99 -99 -99 -99 000 000
000 000 000 000 001 000 002 002 002 001 001 000 000 000 000 000 000 000 001 003 004 006 017 013 011 009 005 -99 002 000 000
000 000 000 000 001 002 002 003 002 001 001 001 000 000 000 000 000 000 000 001 002 004 011 006 007 003 005 008 003 001 000
000 000 000 000 003 003 003 002 001 001 001 001 001 000 000 000 000 000 000 000 001 001 005 005 003 002 006 007 006 003 000
000 000 000 000 001 002 003 001 001 001 001 001 001 000 000 000 000 000 000 000 000 000 001 002 002 001 006 007 009 004 000
000 000 000 000 000 001 002 002 001 000 000 000 001 000 000 000 000 000 000 000 000 000 001 002 002 001 003 003 005 002 000
000 000 000 000 000 000 000 001 000 000 000 000 000 000 000 000 000 000 000 -99 000 000 000 001 001 001 001 003 002 001 000
000 000 000 000 000 000 000 000 000 000 000 000 000 000 000 000 000 000 000 -99 000 000 000 000 000 000 001 001 000 000 000
000 000 000 000 000 000 000 000 000 000 000 000 000 000 000 000 000 000 000 -99 000 000 000 000 000 000 001 001 000 000 000
000 000 000 000 000 000 000 000 000 000 000 000 000 000 000 000 000 000 000 000 000 000 000 000 000 000 000 000 000 000 000
000 000 000 000 000 000 000 000 000 000 -99 000 000 000 000 000 000 000 000 -99 000 000 000 000 000 000 000 000 000 000 000
000 -99 000 000 000 000 000 000 000 -99 000 000 000 000 000 000 000 000 000 -99 000 000 000 000 000 000 000 000 002 002 000
000 -99 000 -99 -99 -99 -99 000 -99 -99 -99 000 000 000 000 000 000 000 -99 -99 000 000 000 000 000 000 000 000 002 002 000
000 000 000 -99 -99 -99 -99 000 -99 -99 -99 000 000 000 000 000 000 -99 -99 -99 000 000 000 000 000 000 000 000 002 002 000
-99 000 000 -99 -99 -99 -99 -99 -99 -99 000 000 000 000 000 000 -99 -99 000 000 000 000 000 000 000 000 000 000 001 002 001
000 000 -99 -99 -99 -99 -99 -99 -99 -99 000 000 000 000 000 000 000 000 000 000 000 000 000 000 000 -99 -99 000 000 001 001
000 000 -99 -99 -99 -99 -99 -99 -99 000 000 000 000 000 000 000 000 000 000 000 000 000 000 000 000 -99 -99 000 000 001 001
000 -99 -99 -99 -99 -99 -99 -99 -99 -99 000 000 000 000 000 000 000 000 000 000 000 001 001 000 000 000 -99 000 000 001 001
000 -99 -99 -99 -99 -99 -99 -99 -99 -99 000 000 000 000 000 000 -99 -99 000 000 000 002 000 000 000 000 000 000 000 -99 003
000 -99 -99 -99 -99 -99 -99 -99 -99 000 000 000 000 000 000 000 -99 000 000 000 001 000 000 000 001 002 000 000 000 000 002
000 -99 -99 -99 -99 -99 -99 -99 -99 -99 000 000 000 000 000 000 000 000 000 -99 000 000 000 000 003 002 000 000 000 000 001
-99 -99 -99 -99 -99 -99 -99 -99 -99 -99 000 000 000 000 000 000 000 000 000 -99 000 001 000 001 003 001 000 000 000 000 001
000 000 -99 -99 -99 -99 -99 -99 -99 000 000 000 000 000 001 000 000 000 000 000 000 000 000 000 002 000 000 000 000 -99 -99
000 000 -99 -99 -99 -99 -99 -99 000 000 000 000 000 000 000 000 000 000 000 000 000 000 000 000 000 000 000 000 000 -99 -99
001 000 -99 -99 -99 -99 -99 -99 000 000 000 000 000 000 000 000 001 001 001 001 000 000 000 000 000 000 000 000 000 -99 -99
000 000 -99 -99 -99 -99 -99 -99 -99 -99 -99 -99 000 000 000 001 003 002 005 005 001 000 000 -99 -99 000 000 -99 -99 -99 -99
000 -99 -99 -99 -99 -99 -99 -99 -99 -99 -99 -99 000 000 000 005 006 005 010 005 002 000 000 -99 -99 000 -99 -99 -99 -99 -99
-99 -99 -99 -99 -99 -99 -99 -99 -99 -99 -99 -99 000 000 002 005 006 012 013 006 004 000 000 000 -99 -99 -99 -99 -99 -99 -99
-99 -99 -99 -99 -99 -99 -99 -99 -99 -99 -99 -99 -99 001 002 002 003 005 012 011 004 000 000 000 -99 -99 -99 -99 -99 -99 -99
